0 0 0 0
0 1 1 0
0 2 1 0
0 3 2 0
0 4 2 7
0 5 2 8
0 6 0 16
0 7 0 2
0 8 2 24
0 9 2 8
0 10 1 6
0 11 1 27
0 12 2 8
0 13 2 17
0 14 0 17
0 15 0 15
0 16 2 21
0 17 0 28
0 18 1 30
0 19 2 32
0 20 2 7
0 21 2 17
0 22 1 23
0 23 1 33
0 24 2 33
0 25 2 23
0 26 1 38
0 27 2 31
0 28 2 38
0 29 2 40
0 30 0 42
0 31 0 47
